problem_generation/data/GISP/train/er_n=62_m=1138_p=0.60_SET2_setparam=100.00_alpha=0.50_720.lp
maximize
OBJ:100x0 + 100x1 + 100x2 + 100x3 + 100x4 + 100x5 + 100x6 + 100x7 + 100x8 + 100x9 + 100x10 + 100x11 + 100x12 + 100x13 + 100x14 + 100x15 + 100x16 + 100x17 + 100x18 + 100x19 + 100x20 + 100x21 + 100x22 + 100x23 + 100x24 + 100x25 + 100x26 + 100x27 + 100x28 + 100x29 + 100x30 + 100x31 + 100x32 + 100x33 + 100x34 + 100x35 + 100x36 + 100x37 + 100x38 + 100x39 + 100x40 + 100x41 + 100x42 + 100x43 + 100x44 + 100x45 + 100x46 + 100x47 + 100x48 + 100x49 + 100x50 + 100x51 + 100x52 + 100x53 + 100x54 + 100x55 + 100x56 + 100x57 + 100x58 + 100x59 + 100x60 + 100x61 - y55_57 - y36_53 - y47_53 - y15_30 - y26_30 - y7_26 - y15_39 - y28_58 - y18_35 - y8_9 - y0_5 - y29_41 - y21_37 - y21_46 - y0_23 - y6_57 - y21_55 - y2_32 - y44_56 - y2_50 - y22_28 - y32_60 - y14_42 - y14_51 - y15_16 - y55_61 - y36_57 - y5_60 - y6_34 - y48_49 - y0_9 - y6_43 - y29_45 - y48_58 - y29_54 - y40_54 - y21_50 - y3_10 - y43_55 - y16_56 - y36_43 - y7_16 - y36_52 - y5_46 - y17_48 - y9_53 - y6_29 - y48_53 - y21_36 - y21_45 - y10_44 - y25_42 - y3_5 - y32_50 - y22_27 - y13_46 - y1_53 - y16_60 - y17_25 - y5_50 - y17_52 - y9_48 - y5_59 - y6_24 - y21_22 - y50_58 - y6_42 - y6_51 - y10_21 - y20_53 - y54_55 - y12_58 - y32_45 - y43_45 - y51_58 - y35_41 - y3_18 - y14_18 - y1_48 - y35_50 - y35_59 - y36_42 - y28_38 - y36_51 - y9_34 - y47_51 - y5_45 - y17_47 - y28_47 - y9_43 - y17_56 - y6_28 - y39_43 - y20_39 - y10_25 - y39_61 - y20_57 - y31_57 - y4_49 - y32_40 - y1_34 - y32_49 - y16_32 - y1_43 - y24_45 - y35_54 - y36_37 - y5_31 - y28_33 - y5_40 - y17_42 - y28_42 - y9_47 - y5_58 - y42_53 - y21_30 - y19_60 - y11_56 - y31_34 - y39_47 - y2_7 - y4_44 - y12_57 - y23_57 - y13_31 - y43_44 - y43_53 - y16_36 - y1_47 - y5_8 - y1_56 - y35_58 - y5_17 - y17_19 - y46_55 - y38_51 - y49_51 - y17_28 - y5_44 - y6_9 - y27_41 - y8_55 - y30_55 - y0_60 - y39_51 - y12_34 - y23_34 - y20_47 - y12_43 - y20_56 - y1_15 - y13_17 - y4_48 - y12_61 - y13_26 - y16_22 - y16_40 - y1_51 - y5_12 - y46_50 - y9_10 - y38_46 - y5_21 - y9_28 - y6_13 - y19_41 - y11_37 - y8_50 - y0_46 - y11_55 - y23_29 - y4_43 - y1_19 - y24_30 - y16_26 - y1_37 - y1_46 - y38_41 - y7_53 - y18_53 - y27_31 - y8_27 - y19_27 - y27_40 - y8_36 - y0_32 - y19_45 - y27_58 - y0_50 - y52_60 - y31_37 - y4_20 - y23_33 - y23_42 - y34_48 - y53_61 - y16_21 - y34_57 - y1_32 - y3_51 - y16_30 - y14_60 - y46_49 - y26_43 - y38_45 - y46_58 - y27_35 - y0_18 - y27_53 - y0_36 - y0_45 - y20_23 - y12_19 - y52_55 - y33_51 - y44_60 - y4_33 - y22_41 - y1_18 - y3_46 - y56_61 - y15_29 - y26_29 - y18_25 - y7_34 - y15_47 - y26_47 - y38_49 - y11_13 - y19_26 - y27_39 - y0_22 - y11_22 - y12_14 - y41_50 - y4_10 - y44_46 - y52_59 - y1_13 - y3_41 - y37_43 - y14_50 - y18_38 - y7_47 - y18_56 - y19_21 - y0_17 - y11_17 - y29_53 - y6_60 - y4_5 - y41_54 - y52_54 - y10_48 - y33_59 - y44_59 - y22_40 - y14_36 - y45_51 - y3_45 - y37_47 - y15_37 - y18_42 - y8_16 - y29_48 - y21_44 - y0_21 - y21_53 - y11_30 - y33_36 - y25_32 - y4_9 - y41_58 - y33_54 - y44_54 - y22_26 - y14_40 - y14_49 - y7_10 - y15_23 - y7_19 - y36_55 - y15_32 - y17_51 - y26_32 - y18_28 - y28_60 - y9_56 - y0_7 - y6_50 - y40_52 - y6_59 - y41_44 - y10_38 - y33_40 - y25_45 - y3_8 - y14_17 - y22_30 - y15_18 - y7_14 - y59_61 - y17_55 - y9_51 - y9_60 - y21_25 - y0_2 - y21_34 - y6_45 - y40_47 - y21_61 - y10_24 - y2_20 - y51_52 - y3_12 - y32_48 - y43_48 - y43_57 - y35_53 - y1_60 - y7_9 - y36_45 - y55_58 - y28_41 - y47_54 - y5_48 - y6_22 - y58_60 - y6_31 - y29_42 - y40_51 - y20_60 - y31_60 - y25_35 - y2_42 - y3_7 - y32_43 - y3_16 - y14_16 - y32_52 - y43_61 - y9_23 - y5_34 - y17_36 - y9_32 - y5_43 - y17_54 - y6_17 - y9_59 - y50_60 - y21_33 - y2_10 - y31_55 - y12_51 - y13_43 - y24_52 - y16_48 - y13_61 - y24_61 - y5_20 - y9_18 - y36_44 - y9_27 - y9_36 - y28_49 - y9_45 - y5_56 - y9_54 - y21_28 - y8_58 - y2_5 - y20_41 - y2_23 - y20_59 - y23_55 - y32_33 - y1_27 - y13_29 - y24_29 - y1_36 - y13_38 - y24_38 - y16_34 - y13_47 - y35_47 - y1_54 - y13_56 - y16_61 - y5_24 - y38_58 - y49_58 - y5_33 - y28_35 - y9_31 - y5_42 - y42_46 - y50_59 - y19_53 - y30_53 - y10_13 - y39_49 - y20_45 - y23_41 - y31_54 - y23_50 - y13_15 - y4_46 - y1_22 - y16_20 - y1_31 - y32_46 - y1_40 - y1_49 - y17_21 - y17_30 - y28_30 - y9_26 - y27_34 - y19_39 - y30_39 - y8_48 - y11_44 - y8_57 - y42_59 - y12_27 - y23_27 - y23_36 - y20_49 - y1_8 - y20_58 - y31_58 - y23_54 - y1_17 - y53_55 - y1_26 - y4_59 - y34_60 - y45_60 - y35_37 - y1_44 - y5_14 - y57_61 - y9_21 - y7_51 - y8_25 - y30_34 - y27_47 - y0_30 - y27_56 - y11_39 - y19_52 - y0_48 - y11_48 - y8_61 - y12_13 - y0_57 - y11_57 - y20_44 - y12_49 - y1_12 - y23_49 - y4_45 - y45_46 - y16_19 - y1_30 - y16_28 - y1_39 - y3_58 - y5_9 - y5_18 - y26_50 - y38_61 - y18_55 - y27_33 - y0_25 - y8_38 - y19_38 - y11_34 - y11_43 - y0_52 - y4_13 - y23_26 - y44_58 - y1_7 - y4_40 - y1_16 - y45_50 - y1_25 - y22_57 - y3_53 - y15_27 - y38_47 - y7_41 - y27_28 - y19_24 - y0_29 - y11_38 - y30_51 - y60_61 - y4_8 - y33_53 - y10_60 - y25_58 - y4_35 - y1_11 - y34_45 - y1_20 - y37_41 - y53_58 - y45_54 - y26_31 - y15_58 - y11_15 - y8_28 - y19_28 - y0_24 - y11_24 - y21_56 - y11_42 - y41_43 - y12_16 - y44_48 - y52_61 - y25_44 - y4_21 - y22_29 - y2_60 - y34_40 - y22_47 - y14_43 - y22_56 - y56_58 - y14_61 - y7_22 - y26_44 - y7_49 - y8_14 - y29_46 - y8_23 - y19_23 - y6_53 - y0_28 - y11_28 - y25_30 - y33_43 - y41_56 - y4_16 - y10_59 - y3_38 - y14_38 - y14_56
 Subject to
C1: x0+x2-y0_2 <=1 
C2: x0+x5-y0_5 <=1 
C3: x0+x6 <=1 
C4: x0+x7-y0_7 <=1 
C5: x0+x9-y0_9 <=1 
C6: x0+x11 <=1 
C7: x0+x12 <=1 
C8: x0+x15 <=1 
C9: x0+x17-y0_17 <=1 
C10: x0+x18-y0_18 <=1 
C11: x0+x21-y0_21 <=1 
C12: x0+x22-y0_22 <=1 
C13: x0+x23-y0_23 <=1 
C14: x0+x24-y0_24 <=1 
C15: x0+x25-y0_25 <=1 
C16: x0+x26 <=1 
C17: x0+x27 <=1 
C18: x0+x28-y0_28 <=1 
C19: x0+x29-y0_29 <=1 
C20: x0+x30-y0_30 <=1 
C21: x0+x31 <=1 
C22: x0+x32-y0_32 <=1 
C23: x0+x34 <=1 
C24: x0+x35 <=1 
C25: x0+x36-y0_36 <=1 
C26: x0+x38 <=1 
C27: x0+x40 <=1 
C28: x0+x45-y0_45 <=1 
C29: x0+x46-y0_46 <=1 
C30: x0+x47 <=1 
C31: x0+x48-y0_48 <=1 
C32: x0+x50-y0_50 <=1 
C33: x0+x52-y0_52 <=1 
C34: x0+x53 <=1 
C35: x0+x54 <=1 
C36: x0+x55 <=1 
C37: x0+x57-y0_57 <=1 
C38: x0+x58 <=1 
C39: x0+x59 <=1 
C40: x0+x60-y0_60 <=1 
C41: x1+x2 <=1 
C42: x1+x7-y1_7 <=1 
C43: x1+x8-y1_8 <=1 
C44: x1+x11-y1_11 <=1 
C45: x1+x12-y1_12 <=1 
C46: x1+x13-y1_13 <=1 
C47: x1+x15-y1_15 <=1 
C48: x1+x16-y1_16 <=1 
C49: x1+x17-y1_17 <=1 
C50: x1+x18-y1_18 <=1 
C51: x1+x19-y1_19 <=1 
C52: x1+x20-y1_20 <=1 
C53: x1+x22-y1_22 <=1 
C54: x1+x25-y1_25 <=1 
C55: x1+x26-y1_26 <=1 
C56: x1+x27-y1_27 <=1 
C57: x1+x28 <=1 
C58: x1+x30-y1_30 <=1 
C59: x1+x31-y1_31 <=1 
C60: x1+x32-y1_32 <=1 
C61: x1+x33 <=1 
C62: x1+x34-y1_34 <=1 
C63: x1+x35 <=1 
C64: x1+x36-y1_36 <=1 
C65: x1+x37-y1_37 <=1 
C66: x1+x38 <=1 
C67: x1+x39-y1_39 <=1 
C68: x1+x40-y1_40 <=1 
C69: x1+x41 <=1 
C70: x1+x43-y1_43 <=1 
C71: x1+x44-y1_44 <=1 
C72: x1+x45 <=1 
C73: x1+x46-y1_46 <=1 
C74: x1+x47-y1_47 <=1 
C75: x1+x48-y1_48 <=1 
C76: x1+x49-y1_49 <=1 
C77: x1+x51-y1_51 <=1 
C78: x1+x53-y1_53 <=1 
C79: x1+x54-y1_54 <=1 
C80: x1+x55 <=1 
C81: x1+x56-y1_56 <=1 
C82: x1+x57 <=1 
C83: x1+x58 <=1 
C84: x1+x60-y1_60 <=1 
C85: x1+x61 <=1 
C86: x2+x5-y2_5 <=1 
C87: x2+x6 <=1 
C88: x2+x7-y2_7 <=1 
C89: x2+x9 <=1 
C90: x2+x10-y2_10 <=1 
C91: x2+x11 <=1 
C92: x2+x12 <=1 
C93: x2+x13 <=1 
C94: x2+x18 <=1 
C95: x2+x20-y2_20 <=1 
C96: x2+x23-y2_23 <=1 
C97: x2+x25 <=1 
C98: x2+x27 <=1 
C99: x2+x30 <=1 
C100: x2+x31 <=1 
C101: x2+x32-y2_32 <=1 
C102: x2+x33 <=1 
C103: x2+x36 <=1 
C104: x2+x37 <=1 
C105: x2+x38 <=1 
C106: x2+x39 <=1 
C107: x2+x41 <=1 
C108: x2+x42-y2_42 <=1 
C109: x2+x48 <=1 
C110: x2+x50-y2_50 <=1 
C111: x2+x52 <=1 
C112: x2+x56 <=1 
C113: x2+x59 <=1 
C114: x2+x60-y2_60 <=1 
C115: x2+x61 <=1 
C116: x3+x5-y3_5 <=1 
C117: x3+x6 <=1 
C118: x3+x7-y3_7 <=1 
C119: x3+x8-y3_8 <=1 
C120: x3+x9 <=1 
C121: x3+x10-y3_10 <=1 
C122: x3+x11 <=1 
C123: x3+x12-y3_12 <=1 
C124: x3+x13 <=1 
C125: x3+x15 <=1 
C126: x3+x16-y3_16 <=1 
C127: x3+x18-y3_18 <=1 
C128: x3+x23 <=1 
C129: x3+x24 <=1 
C130: x3+x26 <=1 
C131: x3+x29 <=1 
C132: x3+x30 <=1 
C133: x3+x33 <=1 
C134: x3+x35 <=1 
C135: x3+x36 <=1 
C136: x3+x37 <=1 
C137: x3+x38-y3_38 <=1 
C138: x3+x41-y3_41 <=1 
C139: x3+x42 <=1 
C140: x3+x43 <=1 
C141: x3+x44 <=1 
C142: x3+x45-y3_45 <=1 
C143: x3+x46-y3_46 <=1 
C144: x3+x48 <=1 
C145: x3+x49 <=1 
C146: x3+x50 <=1 
C147: x3+x51-y3_51 <=1 
C148: x3+x53-y3_53 <=1 
C149: x3+x55 <=1 
C150: x3+x57 <=1 
C151: x3+x58-y3_58 <=1 
C152: x3+x59 <=1 
C153: x3+x60 <=1 
C154: x4+x5-y4_5 <=1 
C155: x4+x6 <=1 
C156: x4+x7 <=1 
C157: x4+x8-y4_8 <=1 
C158: x4+x9-y4_9 <=1 
C159: x4+x10-y4_10 <=1 
C160: x4+x13-y4_13 <=1 
C161: x4+x16-y4_16 <=1 
C162: x4+x17 <=1 
C163: x4+x18 <=1 
C164: x4+x19 <=1 
C165: x4+x20-y4_20 <=1 
C166: x4+x21-y4_21 <=1 
C167: x4+x22 <=1 
C168: x4+x25 <=1 
C169: x4+x29 <=1 
C170: x4+x32 <=1 
C171: x4+x33-y4_33 <=1 
C172: x4+x35-y4_35 <=1 
C173: x4+x36 <=1 
C174: x4+x38 <=1 
C175: x4+x39 <=1 
C176: x4+x40-y4_40 <=1 
C177: x4+x43-y4_43 <=1 
C178: x4+x44-y4_44 <=1 
C179: x4+x45-y4_45 <=1 
C180: x4+x46-y4_46 <=1 
C181: x4+x47 <=1 
C182: x4+x48-y4_48 <=1 
C183: x4+x49-y4_49 <=1 
C184: x4+x55 <=1 
C185: x4+x57 <=1 
C186: x4+x58 <=1 
C187: x4+x59-y4_59 <=1 
C188: x4+x60 <=1 
C189: x5+x7 <=1 
C190: x5+x8-y5_8 <=1 
C191: x5+x9-y5_9 <=1 
C192: x5+x10 <=1 
C193: x5+x11 <=1 
C194: x5+x12-y5_12 <=1 
C195: x5+x14-y5_14 <=1 
C196: x5+x15 <=1 
C197: x5+x17-y5_17 <=1 
C198: x5+x18-y5_18 <=1 
C199: x5+x20-y5_20 <=1 
C200: x5+x21-y5_21 <=1 
C201: x5+x22 <=1 
C202: x5+x23 <=1 
C203: x5+x24-y5_24 <=1 
C204: x5+x25 <=1 
C205: x5+x26 <=1 
C206: x5+x29 <=1 
C207: x5+x31-y5_31 <=1 
C208: x5+x32 <=1 
C209: x5+x33-y5_33 <=1 
C210: x5+x34-y5_34 <=1 
C211: x5+x35 <=1 
C212: x5+x36 <=1 
C213: x5+x40-y5_40 <=1 
C214: x5+x41 <=1 
C215: x5+x42-y5_42 <=1 
C216: x5+x43-y5_43 <=1 
C217: x5+x44-y5_44 <=1 
C218: x5+x45-y5_45 <=1 
C219: x5+x46-y5_46 <=1 
C220: x5+x47 <=1 
C221: x5+x48-y5_48 <=1 
C222: x5+x50-y5_50 <=1 
C223: x5+x53 <=1 
C224: x5+x56-y5_56 <=1 
C225: x5+x57 <=1 
C226: x5+x58-y5_58 <=1 
C227: x5+x59-y5_59 <=1 
C228: x5+x60-y5_60 <=1 
C229: x5+x61 <=1 
C230: x6+x9-y6_9 <=1 
C231: x6+x10 <=1 
C232: x6+x12 <=1 
C233: x6+x13-y6_13 <=1 
C234: x6+x14 <=1 
C235: x6+x17-y6_17 <=1 
C236: x6+x20 <=1 
C237: x6+x22-y6_22 <=1 
C238: x6+x23 <=1 
C239: x6+x24-y6_24 <=1 
C240: x6+x25 <=1 
C241: x6+x27 <=1 
C242: x6+x28-y6_28 <=1 
C243: x6+x29-y6_29 <=1 
C244: x6+x31-y6_31 <=1 
C245: x6+x32 <=1 
C246: x6+x33 <=1 
C247: x6+x34-y6_34 <=1 
C248: x6+x35 <=1 
C249: x6+x38 <=1 
C250: x6+x42-y6_42 <=1 
C251: x6+x43-y6_43 <=1 
C252: x6+x44 <=1 
C253: x6+x45-y6_45 <=1 
C254: x6+x47 <=1 
C255: x6+x49 <=1 
C256: x6+x50-y6_50 <=1 
C257: x6+x51-y6_51 <=1 
C258: x6+x52 <=1 
C259: x6+x53-y6_53 <=1 
C260: x6+x55 <=1 
C261: x6+x57-y6_57 <=1 
C262: x6+x59-y6_59 <=1 
C263: x6+x60-y6_60 <=1 
C264: x7+x8 <=1 
C265: x7+x9-y7_9 <=1 
C266: x7+x10-y7_10 <=1 
C267: x7+x11 <=1 
C268: x7+x12 <=1 
C269: x7+x13 <=1 
C270: x7+x14-y7_14 <=1 
C271: x7+x15 <=1 
C272: x7+x16-y7_16 <=1 
C273: x7+x18 <=1 
C274: x7+x19-y7_19 <=1 
C275: x7+x22-y7_22 <=1 
C276: x7+x26-y7_26 <=1 
C277: x7+x30 <=1 
C278: x7+x31 <=1 
C279: x7+x34-y7_34 <=1 
C280: x7+x35 <=1 
C281: x7+x37 <=1 
C282: x7+x38 <=1 
C283: x7+x41-y7_41 <=1 
C284: x7+x47-y7_47 <=1 
C285: x7+x49-y7_49 <=1 
C286: x7+x51-y7_51 <=1 
C287: x7+x53-y7_53 <=1 
C288: x7+x56 <=1 
C289: x7+x58 <=1 
C290: x7+x61 <=1 
C291: x8+x9-y8_9 <=1 
C292: x8+x10 <=1 
C293: x8+x11 <=1 
C294: x8+x12 <=1 
C295: x8+x13 <=1 
C296: x8+x14-y8_14 <=1 
C297: x8+x16-y8_16 <=1 
C298: x8+x17 <=1 
C299: x8+x18 <=1 
C300: x8+x22 <=1 
C301: x8+x23-y8_23 <=1 
C302: x8+x24 <=1 
C303: x8+x25-y8_25 <=1 
C304: x8+x27-y8_27 <=1 
C305: x8+x28-y8_28 <=1 
C306: x8+x29 <=1 
C307: x8+x30 <=1 
C308: x8+x31 <=1 
C309: x8+x33 <=1 
C310: x8+x36-y8_36 <=1 
C311: x8+x37 <=1 
C312: x8+x38-y8_38 <=1 
C313: x8+x40 <=1 
C314: x8+x42 <=1 
C315: x8+x43 <=1 
C316: x8+x48-y8_48 <=1 
C317: x8+x50-y8_50 <=1 
C318: x8+x51 <=1 
C319: x8+x52 <=1 
C320: x8+x54 <=1 
C321: x8+x55-y8_55 <=1 
C322: x8+x56 <=1 
C323: x8+x57-y8_57 <=1 
C324: x8+x58-y8_58 <=1 
C325: x8+x59 <=1 
C326: x8+x61-y8_61 <=1 
C327: x9+x10-y9_10 <=1 
C328: x9+x11 <=1 
C329: x9+x12 <=1 
C330: x9+x17 <=1 
C331: x9+x18-y9_18 <=1 
C332: x9+x20 <=1 
C333: x9+x21-y9_21 <=1 
C334: x9+x23-y9_23 <=1 
C335: x9+x25 <=1 
C336: x9+x26-y9_26 <=1 
C337: x9+x27-y9_27 <=1 
C338: x9+x28-y9_28 <=1 
C339: x9+x29 <=1 
C340: x9+x31-y9_31 <=1 
C341: x9+x32-y9_32 <=1 
C342: x9+x34-y9_34 <=1 
C343: x9+x36-y9_36 <=1 
C344: x9+x37 <=1 
C345: x9+x40 <=1 
C346: x9+x41 <=1 
C347: x9+x42 <=1 
C348: x9+x43-y9_43 <=1 
C349: x9+x45-y9_45 <=1 
C350: x9+x47-y9_47 <=1 
C351: x9+x48-y9_48 <=1 
C352: x9+x51-y9_51 <=1 
C353: x9+x53-y9_53 <=1 
C354: x9+x54-y9_54 <=1 
C355: x9+x55 <=1 
C356: x9+x56-y9_56 <=1 
C357: x9+x59-y9_59 <=1 
C358: x9+x60-y9_60 <=1 
C359: x10+x11 <=1 
C360: x10+x12 <=1 
C361: x10+x13-y10_13 <=1 
C362: x10+x15 <=1 
C363: x10+x16 <=1 
C364: x10+x18 <=1 
C365: x10+x19 <=1 
C366: x10+x20 <=1 
C367: x10+x21-y10_21 <=1 
C368: x10+x22 <=1 
C369: x10+x23 <=1 
C370: x10+x24-y10_24 <=1 
C371: x10+x25-y10_25 <=1 
C372: x10+x26 <=1 
C373: x10+x31 <=1 
C374: x10+x32 <=1 
C375: x10+x33 <=1 
C376: x10+x36 <=1 
C377: x10+x37 <=1 
C378: x10+x38-y10_38 <=1 
C379: x10+x41 <=1 
C380: x10+x43 <=1 
C381: x10+x44-y10_44 <=1 
C382: x10+x45 <=1 
C383: x10+x48-y10_48 <=1 
C384: x10+x49 <=1 
C385: x10+x51 <=1 
C386: x10+x52 <=1 
C387: x10+x53 <=1 
C388: x10+x56 <=1 
C389: x10+x58 <=1 
C390: x10+x59-y10_59 <=1 
C391: x10+x60-y10_60 <=1 
C392: x11+x13-y11_13 <=1 
C393: x11+x14 <=1 
C394: x11+x15-y11_15 <=1 
C395: x11+x17-y11_17 <=1 
C396: x11+x19 <=1 
C397: x11+x22-y11_22 <=1 
C398: x11+x24-y11_24 <=1 
C399: x11+x25 <=1 
C400: x11+x28-y11_28 <=1 
C401: x11+x30-y11_30 <=1 
C402: x11+x32 <=1 
C403: x11+x34-y11_34 <=1 
C404: x11+x37-y11_37 <=1 
C405: x11+x38-y11_38 <=1 
C406: x11+x39-y11_39 <=1 
C407: x11+x41 <=1 
C408: x11+x42-y11_42 <=1 
C409: x11+x43-y11_43 <=1 
C410: x11+x44-y11_44 <=1 
C411: x11+x45 <=1 
C412: x11+x48-y11_48 <=1 
C413: x11+x50 <=1 
C414: x11+x52 <=1 
C415: x11+x53 <=1 
C416: x11+x55-y11_55 <=1 
C417: x11+x56-y11_56 <=1 
C418: x11+x57-y11_57 <=1 
C419: x11+x59 <=1 
C420: x12+x13-y12_13 <=1 
C421: x12+x14-y12_14 <=1 
C422: x12+x15 <=1 
C423: x12+x16-y12_16 <=1 
C424: x12+x19-y12_19 <=1 
C425: x12+x20 <=1 
C426: x12+x22 <=1 
C427: x12+x23 <=1 
C428: x12+x27-y12_27 <=1 
C429: x12+x30 <=1 
C430: x12+x31 <=1 
C431: x12+x32 <=1 
C432: x12+x33 <=1 
C433: x12+x34-y12_34 <=1 
C434: x12+x39 <=1 
C435: x12+x40 <=1 
C436: x12+x43-y12_43 <=1 
C437: x12+x47 <=1 
C438: x12+x48 <=1 
C439: x12+x49-y12_49 <=1 
C440: x12+x51-y12_51 <=1 
C441: x12+x52 <=1 
C442: x12+x54 <=1 
C443: x12+x55 <=1 
C444: x12+x57-y12_57 <=1 
C445: x12+x58-y12_58 <=1 
C446: x12+x61-y12_61 <=1 
C447: x13+x15-y13_15 <=1 
C448: x13+x17-y13_17 <=1 
C449: x13+x18 <=1 
C450: x13+x19 <=1 
C451: x13+x21 <=1 
C452: x13+x22 <=1 
C453: x13+x23 <=1 
C454: x13+x24 <=1 
C455: x13+x26-y13_26 <=1 
C456: x13+x27 <=1 
C457: x13+x29-y13_29 <=1 
C458: x13+x30 <=1 
C459: x13+x31-y13_31 <=1 
C460: x13+x33 <=1 
C461: x13+x34 <=1 
C462: x13+x35 <=1 
C463: x13+x36 <=1 
C464: x13+x38-y13_38 <=1 
C465: x13+x39 <=1 
C466: x13+x42 <=1 
C467: x13+x43-y13_43 <=1 
C468: x13+x46-y13_46 <=1 
C469: x13+x47-y13_47 <=1 
C470: x13+x52 <=1 
C471: x13+x56-y13_56 <=1 
C472: x13+x57 <=1 
C473: x13+x58 <=1 
C474: x13+x60 <=1 
C475: x13+x61-y13_61 <=1 
C476: x14+x15 <=1 
C477: x14+x16-y14_16 <=1 
C478: x14+x17-y14_17 <=1 
C479: x14+x18-y14_18 <=1 
C480: x14+x21 <=1 
C481: x14+x22 <=1 
C482: x14+x25 <=1 
C483: x14+x28 <=1 
C484: x14+x29 <=1 
C485: x14+x30 <=1 
C486: x14+x33 <=1 
C487: x14+x34 <=1 
C488: x14+x36-y14_36 <=1 
C489: x14+x37 <=1 
C490: x14+x38-y14_38 <=1 
C491: x14+x40-y14_40 <=1 
C492: x14+x41 <=1 
C493: x14+x42-y14_42 <=1 
C494: x14+x43-y14_43 <=1 
C495: x14+x44 <=1 
C496: x14+x46 <=1 
C497: x14+x49-y14_49 <=1 
C498: x14+x50-y14_50 <=1 
C499: x14+x51-y14_51 <=1 
C500: x14+x52 <=1 
C501: x14+x56-y14_56 <=1 
C502: x14+x57 <=1 
C503: x14+x58 <=1 
C504: x14+x60-y14_60 <=1 
C505: x14+x61-y14_61 <=1 
C506: x15+x16-y15_16 <=1 
C507: x15+x17 <=1 
C508: x15+x18-y15_18 <=1 
C509: x15+x19 <=1 
C510: x15+x20 <=1 
C511: x15+x21 <=1 
C512: x15+x23-y15_23 <=1 
C513: x15+x26 <=1 
C514: x15+x27-y15_27 <=1 
C515: x15+x28 <=1 
C516: x15+x29-y15_29 <=1 
C517: x15+x30-y15_30 <=1 
C518: x15+x32-y15_32 <=1 
C519: x15+x33 <=1 
C520: x15+x35 <=1 
C521: x15+x37-y15_37 <=1 
C522: x15+x39-y15_39 <=1 
C523: x15+x41 <=1 
C524: x15+x42 <=1 
C525: x15+x43 <=1 
C526: x15+x47-y15_47 <=1 
C527: x15+x51 <=1 
C528: x15+x53 <=1 
C529: x15+x57 <=1 
C530: x15+x58-y15_58 <=1 
C531: x15+x60 <=1 
C532: x16+x18 <=1 
C533: x16+x19-y16_19 <=1 
C534: x16+x20-y16_20 <=1 
C535: x16+x21-y16_21 <=1 
C536: x16+x22-y16_22 <=1 
C537: x16+x24 <=1 
C538: x16+x25 <=1 
C539: x16+x26-y16_26 <=1 
C540: x16+x27 <=1 
C541: x16+x28-y16_28 <=1 
C542: x16+x30-y16_30 <=1 
C543: x16+x32-y16_32 <=1 
C544: x16+x34-y16_34 <=1 
C545: x16+x36-y16_36 <=1 
C546: x16+x37 <=1 
C547: x16+x38 <=1 
C548: x16+x40-y16_40 <=1 
C549: x16+x43 <=1 
C550: x16+x48-y16_48 <=1 
C551: x16+x49 <=1 
C552: x16+x51 <=1 
C553: x16+x52 <=1 
C554: x16+x54 <=1 
C555: x16+x56-y16_56 <=1 
C556: x16+x60-y16_60 <=1 
C557: x16+x61-y16_61 <=1 
C558: x17+x18 <=1 
C559: x17+x19-y17_19 <=1 
C560: x17+x21-y17_21 <=1 
C561: x17+x24 <=1 
C562: x17+x25-y17_25 <=1 
C563: x17+x26 <=1 
C564: x17+x27 <=1 
C565: x17+x28-y17_28 <=1 
C566: x17+x29 <=1 
C567: x17+x30-y17_30 <=1 
C568: x17+x31 <=1 
C569: x17+x33 <=1 
C570: x17+x34 <=1 
C571: x17+x35 <=1 
C572: x17+x36-y17_36 <=1 
C573: x17+x39 <=1 
C574: x17+x42-y17_42 <=1 
C575: x17+x43 <=1 
C576: x17+x46 <=1 
C577: x17+x47-y17_47 <=1 
C578: x17+x48-y17_48 <=1 
C579: x17+x49 <=1 
C580: x17+x50 <=1 
C581: x17+x51-y17_51 <=1 
C582: x17+x52-y17_52 <=1 
C583: x17+x54-y17_54 <=1 
C584: x17+x55-y17_55 <=1 
C585: x17+x56-y17_56 <=1 
C586: x17+x58 <=1 
C587: x17+x59 <=1 
C588: x17+x60 <=1 
C589: x17+x61 <=1 
C590: x18+x21 <=1 
C591: x18+x24 <=1 
C592: x18+x25-y18_25 <=1 
C593: x18+x26 <=1 
C594: x18+x28-y18_28 <=1 
C595: x18+x35-y18_35 <=1 
C596: x18+x37 <=1 
C597: x18+x38-y18_38 <=1 
C598: x18+x39 <=1 
C599: x18+x42-y18_42 <=1 
C600: x18+x43 <=1 
C601: x18+x44 <=1 
C602: x18+x47 <=1 
C603: x18+x53-y18_53 <=1 
C604: x18+x55-y18_55 <=1 
C605: x18+x56-y18_56 <=1 
C606: x18+x57 <=1 
C607: x18+x58 <=1 
C608: x19+x21-y19_21 <=1 
C609: x19+x23-y19_23 <=1 
C610: x19+x24-y19_24 <=1 
C611: x19+x25 <=1 
C612: x19+x26-y19_26 <=1 
C613: x19+x27-y19_27 <=1 
C614: x19+x28-y19_28 <=1 
C615: x19+x30 <=1 
C616: x19+x31 <=1 
C617: x19+x33 <=1 
C618: x19+x34 <=1 
C619: x19+x38-y19_38 <=1 
C620: x19+x39-y19_39 <=1 
C621: x19+x41-y19_41 <=1 
C622: x19+x43 <=1 
C623: x19+x44 <=1 
C624: x19+x45-y19_45 <=1 
C625: x19+x46 <=1 
C626: x19+x48 <=1 
C627: x19+x49 <=1 
C628: x19+x52-y19_52 <=1 
C629: x19+x53-y19_53 <=1 
C630: x19+x55 <=1 
C631: x19+x60-y19_60 <=1 
C632: x19+x61 <=1 
C633: x20+x23-y20_23 <=1 
C634: x20+x24 <=1 
C635: x20+x25 <=1 
C636: x20+x26 <=1 
C637: x20+x29 <=1 
C638: x20+x33 <=1 
C639: x20+x39-y20_39 <=1 
C640: x20+x41-y20_41 <=1 
C641: x20+x44-y20_44 <=1 
C642: x20+x45-y20_45 <=1 
C643: x20+x46 <=1 
C644: x20+x47-y20_47 <=1 
C645: x20+x49-y20_49 <=1 
C646: x20+x51 <=1 
C647: x20+x52 <=1 
C648: x20+x53-y20_53 <=1 
C649: x20+x55 <=1 
C650: x20+x56-y20_56 <=1 
C651: x20+x57-y20_57 <=1 
C652: x20+x58-y20_58 <=1 
C653: x20+x59-y20_59 <=1 
C654: x20+x60-y20_60 <=1 
C655: x20+x61 <=1 
C656: x21+x22-y21_22 <=1 
C657: x21+x24 <=1 
C658: x21+x25-y21_25 <=1 
C659: x21+x26 <=1 
C660: x21+x27 <=1 
C661: x21+x28-y21_28 <=1 
C662: x21+x30-y21_30 <=1 
C663: x21+x33-y21_33 <=1 
C664: x21+x34-y21_34 <=1 
C665: x21+x35 <=1 
C666: x21+x36-y21_36 <=1 
C667: x21+x37-y21_37 <=1 
C668: x21+x40 <=1 
C669: x21+x41 <=1 
C670: x21+x42 <=1 
C671: x21+x43 <=1 
C672: x21+x44-y21_44 <=1 
C673: x21+x45-y21_45 <=1 
C674: x21+x46-y21_46 <=1 
C675: x21+x49 <=1 
C676: x21+x50-y21_50 <=1 
C677: x21+x53-y21_53 <=1 
C678: x21+x55-y21_55 <=1 
C679: x21+x56-y21_56 <=1 
C680: x21+x57 <=1 
C681: x21+x58 <=1 
C682: x21+x59 <=1 
C683: x21+x60 <=1 
C684: x21+x61-y21_61 <=1 
C685: x22+x25 <=1 
C686: x22+x26-y22_26 <=1 
C687: x22+x27-y22_27 <=1 
C688: x22+x28-y22_28 <=1 
C689: x22+x29-y22_29 <=1 
C690: x22+x30-y22_30 <=1 
C691: x22+x32 <=1 
C692: x22+x33 <=1 
C693: x22+x34 <=1 
C694: x22+x37 <=1 
C695: x22+x40-y22_40 <=1 
C696: x22+x41-y22_41 <=1 
C697: x22+x44 <=1 
C698: x22+x45 <=1 
C699: x22+x47-y22_47 <=1 
C700: x22+x48 <=1 
C701: x22+x49 <=1 
C702: x22+x52 <=1 
C703: x22+x55 <=1 
C704: x22+x56-y22_56 <=1 
C705: x22+x57-y22_57 <=1 
C706: x22+x59 <=1 
C707: x22+x60 <=1 
C708: x23+x24 <=1 
C709: x23+x26-y23_26 <=1 
C710: x23+x27-y23_27 <=1 
C711: x23+x29-y23_29 <=1 
C712: x23+x31 <=1 
C713: x23+x32 <=1 
C714: x23+x33-y23_33 <=1 
C715: x23+x34-y23_34 <=1 
C716: x23+x36-y23_36 <=1 
C717: x23+x37 <=1 
C718: x23+x41-y23_41 <=1 
C719: x23+x42-y23_42 <=1 
C720: x23+x48 <=1 
C721: x23+x49-y23_49 <=1 
C722: x23+x50-y23_50 <=1 
C723: x23+x52 <=1 
C724: x23+x54-y23_54 <=1 
C725: x23+x55-y23_55 <=1 
C726: x23+x56 <=1 
C727: x23+x57-y23_57 <=1 
C728: x23+x59 <=1 
C729: x24+x25 <=1 
C730: x24+x28 <=1 
C731: x24+x29-y24_29 <=1 
C732: x24+x30-y24_30 <=1 
C733: x24+x31 <=1 
C734: x24+x32 <=1 
C735: x24+x36 <=1 
C736: x24+x38-y24_38 <=1 
C737: x24+x39 <=1 
C738: x24+x40 <=1 
C739: x24+x41 <=1 
C740: x24+x45-y24_45 <=1 
C741: x24+x47 <=1 
C742: x24+x48 <=1 
C743: x24+x49 <=1 
C744: x24+x52-y24_52 <=1 
C745: x24+x54 <=1 
C746: x24+x55 <=1 
C747: x24+x57 <=1 
C748: x24+x61-y24_61 <=1 
C749: x25+x30-y25_30 <=1 
C750: x25+x32-y25_32 <=1 
C751: x25+x35-y25_35 <=1 
C752: x25+x38 <=1 
C753: x25+x40 <=1 
C754: x25+x42-y25_42 <=1 
C755: x25+x44-y25_44 <=1 
C756: x25+x45-y25_45 <=1 
C757: x25+x47 <=1 
C758: x25+x52 <=1 
C759: x25+x53 <=1 
C760: x25+x54 <=1 
C761: x25+x55 <=1 
C762: x25+x56 <=1 
C763: x25+x58-y25_58 <=1 
C764: x25+x59 <=1 
C765: x25+x60 <=1 
C766: x25+x61 <=1 
C767: x26+x28 <=1 
C768: x26+x29-y26_29 <=1 
C769: x26+x30-y26_30 <=1 
C770: x26+x31-y26_31 <=1 
C771: x26+x32-y26_32 <=1 
C772: x26+x35 <=1 
C773: x26+x36 <=1 
C774: x26+x38 <=1 
C775: x26+x39 <=1 
C776: x26+x41 <=1 
C777: x26+x42 <=1 
C778: x26+x43-y26_43 <=1 
C779: x26+x44-y26_44 <=1 
C780: x26+x45 <=1 
C781: x26+x46 <=1 
C782: x26+x47-y26_47 <=1 
C783: x26+x50-y26_50 <=1 
C784: x26+x51 <=1 
C785: x26+x53 <=1 
C786: x26+x54 <=1 
C787: x26+x55 <=1 
C788: x26+x56 <=1 
C789: x26+x57 <=1 
C790: x26+x60 <=1 
C791: x27+x28-y27_28 <=1 
C792: x27+x31-y27_31 <=1 
C793: x27+x33-y27_33 <=1 
C794: x27+x34-y27_34 <=1 
C795: x27+x35-y27_35 <=1 
C796: x27+x38 <=1 
C797: x27+x39-y27_39 <=1 
C798: x27+x40-y27_40 <=1 
C799: x27+x41-y27_41 <=1 
C800: x27+x47-y27_47 <=1 
C801: x27+x50 <=1 
C802: x27+x52 <=1 
C803: x27+x53-y27_53 <=1 
C804: x27+x54 <=1 
C805: x27+x56-y27_56 <=1 
C806: x27+x58-y27_58 <=1 
C807: x27+x61 <=1 
C808: x28+x30-y28_30 <=1 
C809: x28+x32 <=1 
C810: x28+x33-y28_33 <=1 
C811: x28+x35-y28_35 <=1 
C812: x28+x36 <=1 
C813: x28+x38-y28_38 <=1 
C814: x28+x39 <=1 
C815: x28+x40 <=1 
C816: x28+x41-y28_41 <=1 
C817: x28+x42-y28_42 <=1 
C818: x28+x45 <=1 
C819: x28+x47-y28_47 <=1 
C820: x28+x48 <=1 
C821: x28+x49-y28_49 <=1 
C822: x28+x51 <=1 
C823: x28+x54 <=1 
C824: x28+x55 <=1 
C825: x28+x58-y28_58 <=1 
C826: x28+x60-y28_60 <=1 
C827: x29+x30 <=1 
C828: x29+x32 <=1 
C829: x29+x34 <=1 
C830: x29+x36 <=1 
C831: x29+x37 <=1 
C832: x29+x38 <=1 
C833: x29+x40 <=1 
C834: x29+x41-y29_41 <=1 
C835: x29+x42-y29_42 <=1 
C836: x29+x43 <=1 
C837: x29+x45-y29_45 <=1 
C838: x29+x46-y29_46 <=1 
C839: x29+x48-y29_48 <=1 
C840: x29+x50 <=1 
C841: x29+x53-y29_53 <=1 
C842: x29+x54-y29_54 <=1 
C843: x29+x58 <=1 
C844: x29+x61 <=1 
C845: x30+x34-y30_34 <=1 
C846: x30+x36 <=1 
C847: x30+x39-y30_39 <=1 
C848: x30+x42 <=1 
C849: x30+x43 <=1 
C850: x30+x46 <=1 
C851: x30+x47 <=1 
C852: x30+x48 <=1 
C853: x30+x51-y30_51 <=1 
C854: x30+x52 <=1 
C855: x30+x53-y30_53 <=1 
C856: x30+x55-y30_55 <=1 
C857: x30+x59 <=1 
C858: x30+x60 <=1 
C859: x30+x61 <=1 
C860: x31+x32 <=1 
C861: x31+x33 <=1 
C862: x31+x34-y31_34 <=1 
C863: x31+x35 <=1 
C864: x31+x36 <=1 
C865: x31+x37-y31_37 <=1 
C866: x31+x41 <=1 
C867: x31+x42 <=1 
C868: x31+x43 <=1 
C869: x31+x46 <=1 
C870: x31+x47 <=1 
C871: x31+x51 <=1 
C872: x31+x54-y31_54 <=1 
C873: x31+x55-y31_55 <=1 
C874: x31+x56 <=1 
C875: x31+x57-y31_57 <=1 
C876: x31+x58-y31_58 <=1 
C877: x31+x60-y31_60 <=1 
C878: x31+x61 <=1 
C879: x32+x33-y32_33 <=1 
C880: x32+x35 <=1 
C881: x32+x38 <=1 
C882: x32+x40-y32_40 <=1 
C883: x32+x41 <=1 
C884: x32+x43-y32_43 <=1 
C885: x32+x45-y32_45 <=1 
C886: x32+x46-y32_46 <=1 
C887: x32+x48-y32_48 <=1 
C888: x32+x49-y32_49 <=1 
C889: x32+x50-y32_50 <=1 
C890: x32+x52-y32_52 <=1 
C891: x32+x54 <=1 
C892: x32+x58 <=1 
C893: x32+x60-y32_60 <=1 
C894: x33+x36-y33_36 <=1 
C895: x33+x39 <=1 
C896: x33+x40-y33_40 <=1 
C897: x33+x41 <=1 
C898: x33+x42 <=1 
C899: x33+x43-y33_43 <=1 
C900: x33+x48 <=1 
C901: x33+x51-y33_51 <=1 
C902: x33+x52 <=1 
C903: x33+x53-y33_53 <=1 
C904: x33+x54-y33_54 <=1 
C905: x33+x57 <=1 
C906: x33+x59-y33_59 <=1 
C907: x33+x60 <=1 
C908: x34+x35 <=1 
C909: x34+x37 <=1 
C910: x34+x38 <=1 
C911: x34+x40-y34_40 <=1 
C912: x34+x41 <=1 
C913: x34+x42 <=1 
C914: x34+x43 <=1 
C915: x34+x44 <=1 
C916: x34+x45-y34_45 <=1 
C917: x34+x46 <=1 
C918: x34+x47 <=1 
C919: x34+x48-y34_48 <=1 
C920: x34+x49 <=1 
C921: x34+x50 <=1 
C922: x34+x52 <=1 
C923: x34+x53 <=1 
C924: x34+x57-y34_57 <=1 
C925: x34+x59 <=1 
C926: x34+x60-y34_60 <=1 
C927: x34+x61 <=1 
C928: x35+x36 <=1 
C929: x35+x37-y35_37 <=1 
C930: x35+x38 <=1 
C931: x35+x39 <=1 
C932: x35+x40 <=1 
C933: x35+x41-y35_41 <=1 
C934: x35+x42 <=1 
C935: x35+x43 <=1 
C936: x35+x45 <=1 
C937: x35+x47-y35_47 <=1 
C938: x35+x49 <=1 
C939: x35+x50-y35_50 <=1 
C940: x35+x52 <=1 
C941: x35+x53-y35_53 <=1 
C942: x35+x54-y35_54 <=1 
C943: x35+x55 <=1 
C944: x35+x58-y35_58 <=1 
C945: x35+x59-y35_59 <=1 
C946: x36+x37-y36_37 <=1 
C947: x36+x38 <=1 
C948: x36+x41 <=1 
C949: x36+x42-y36_42 <=1 
C950: x36+x43-y36_43 <=1 
C951: x36+x44-y36_44 <=1 
C952: x36+x45-y36_45 <=1 
C953: x36+x47 <=1 
C954: x36+x50 <=1 
C955: x36+x51-y36_51 <=1 
C956: x36+x52-y36_52 <=1 
C957: x36+x53-y36_53 <=1 
C958: x36+x54 <=1 
C959: x36+x55-y36_55 <=1 
C960: x36+x56 <=1 
C961: x36+x57-y36_57 <=1 
C962: x36+x59 <=1 
C963: x36+x60 <=1 
C964: x37+x41-y37_41 <=1 
C965: x37+x43-y37_43 <=1 
C966: x37+x45 <=1 
C967: x37+x47-y37_47 <=1 
C968: x37+x49 <=1 
C969: x37+x53 <=1 
C970: x37+x57 <=1 
C971: x37+x58 <=1 
C972: x37+x59 <=1 
C973: x38+x39 <=1 
C974: x38+x40 <=1 
C975: x38+x41-y38_41 <=1 
C976: x38+x42 <=1 
C977: x38+x44 <=1 
C978: x38+x45-y38_45 <=1 
C979: x38+x46-y38_46 <=1 
C980: x38+x47-y38_47 <=1 
C981: x38+x48 <=1 
C982: x38+x49-y38_49 <=1 
C983: x38+x51-y38_51 <=1 
C984: x38+x58-y38_58 <=1 
C985: x38+x59 <=1 
C986: x38+x61-y38_61 <=1 
C987: x39+x43-y39_43 <=1 
C988: x39+x45 <=1 
C989: x39+x46 <=1 
C990: x39+x47-y39_47 <=1 
C991: x39+x49-y39_49 <=1 
C992: x39+x50 <=1 
C993: x39+x51-y39_51 <=1 
C994: x39+x53 <=1 
C995: x39+x55 <=1 
C996: x39+x57 <=1 
C997: x39+x60 <=1 
C998: x39+x61-y39_61 <=1 
C999: x40+x41 <=1 
C1000: x40+x42 <=1 
C1001: x40+x43 <=1 
C1002: x40+x44 <=1 
C1003: x40+x45 <=1 
C1004: x40+x46 <=1 
C1005: x40+x47-y40_47 <=1 
C1006: x40+x50 <=1 
C1007: x40+x51-y40_51 <=1 
C1008: x40+x52-y40_52 <=1 
C1009: x40+x54-y40_54 <=1 
C1010: x40+x55 <=1 
C1011: x40+x57 <=1 
C1012: x40+x59 <=1 
C1013: x40+x61 <=1 
C1014: x41+x43-y41_43 <=1 
C1015: x41+x44-y41_44 <=1 
C1016: x41+x45 <=1 
C1017: x41+x46 <=1 
C1018: x41+x49 <=1 
C1019: x41+x50-y41_50 <=1 
C1020: x41+x53 <=1 
C1021: x41+x54-y41_54 <=1 
C1022: x41+x56-y41_56 <=1 
C1023: x41+x57 <=1 
C1024: x41+x58-y41_58 <=1 
C1025: x41+x59 <=1 
C1026: x41+x61 <=1 
C1027: x42+x44 <=1 
C1028: x42+x46-y42_46 <=1 
C1029: x42+x47 <=1 
C1030: x42+x49 <=1 
C1031: x42+x53-y42_53 <=1 
C1032: x42+x54 <=1 
C1033: x42+x55 <=1 
C1034: x42+x56 <=1 
C1035: x42+x57 <=1 
C1036: x42+x58 <=1 
C1037: x42+x59-y42_59 <=1 
C1038: x42+x60 <=1 
C1039: x43+x44-y43_44 <=1 
C1040: x43+x45-y43_45 <=1 
C1041: x43+x48-y43_48 <=1 
C1042: x43+x49 <=1 
C1043: x43+x51 <=1 
C1044: x43+x52 <=1 
C1045: x43+x53-y43_53 <=1 
C1046: x43+x55-y43_55 <=1 
C1047: x43+x57-y43_57 <=1 
C1048: x43+x58 <=1 
C1049: x43+x59 <=1 
C1050: x43+x60 <=1 
C1051: x43+x61-y43_61 <=1 
C1052: x44+x46-y44_46 <=1 
C1053: x44+x48-y44_48 <=1 
C1054: x44+x49 <=1 
C1055: x44+x51 <=1 
C1056: x44+x53 <=1 
C1057: x44+x54-y44_54 <=1 
C1058: x44+x55 <=1 
C1059: x44+x56-y44_56 <=1 
C1060: x44+x58-y44_58 <=1 
C1061: x44+x59-y44_59 <=1 
C1062: x44+x60-y44_60 <=1 
C1063: x45+x46-y45_46 <=1 
C1064: x45+x47 <=1 
C1065: x45+x48 <=1 
C1066: x45+x50-y45_50 <=1 
C1067: x45+x51-y45_51 <=1 
C1068: x45+x53 <=1 
C1069: x45+x54-y45_54 <=1 
C1070: x45+x55 <=1 
C1071: x45+x60-y45_60 <=1 
C1072: x46+x47 <=1 
C1073: x46+x48 <=1 
C1074: x46+x49-y46_49 <=1 
C1075: x46+x50-y46_50 <=1 
C1076: x46+x55-y46_55 <=1 
C1077: x46+x56 <=1 
C1078: x46+x57 <=1 
C1079: x46+x58-y46_58 <=1 
C1080: x46+x59 <=1 
C1081: x46+x61 <=1 
C1082: x47+x49 <=1 
C1083: x47+x51-y47_51 <=1 
C1084: x47+x53-y47_53 <=1 
C1085: x47+x54-y47_54 <=1 
C1086: x47+x55 <=1 
C1087: x47+x56 <=1 
C1088: x47+x57 <=1 
C1089: x47+x59 <=1 
C1090: x47+x61 <=1 
C1091: x48+x49-y48_49 <=1 
C1092: x48+x51 <=1 
C1093: x48+x53-y48_53 <=1 
C1094: x48+x54 <=1 
C1095: x48+x58-y48_58 <=1 
C1096: x48+x59 <=1 
C1097: x49+x51-y49_51 <=1 
C1098: x49+x53 <=1 
C1099: x49+x55 <=1 
C1100: x49+x56 <=1 
C1101: x49+x58-y49_58 <=1 
C1102: x49+x59 <=1 
C1103: x49+x61 <=1 
C1104: x50+x54 <=1 
C1105: x50+x56 <=1 
C1106: x50+x57 <=1 
C1107: x50+x58-y50_58 <=1 
C1108: x50+x59-y50_59 <=1 
C1109: x50+x60-y50_60 <=1 
C1110: x51+x52-y51_52 <=1 
C1111: x51+x54 <=1 
C1112: x51+x55 <=1 
C1113: x51+x56 <=1 
C1114: x51+x58-y51_58 <=1 
C1115: x52+x54-y52_54 <=1 
C1116: x52+x55-y52_55 <=1 
C1117: x52+x58 <=1 
C1118: x52+x59-y52_59 <=1 
C1119: x52+x60-y52_60 <=1 
C1120: x52+x61-y52_61 <=1 
C1121: x53+x55-y53_55 <=1 
C1122: x53+x57 <=1 
C1123: x53+x58-y53_58 <=1 
C1124: x53+x60 <=1 
C1125: x53+x61-y53_61 <=1 
C1126: x54+x55-y54_55 <=1 
C1127: x55+x56 <=1 
C1128: x55+x57-y55_57 <=1 
C1129: x55+x58-y55_58 <=1 
C1130: x55+x61-y55_61 <=1 
C1131: x56+x58-y56_58 <=1 
C1132: x56+x61-y56_61 <=1 
C1133: x57+x59 <=1 
C1134: x57+x60 <=1 
C1135: x57+x61-y57_61 <=1 
C1136: x58+x60-y58_60 <=1 
C1137: x59+x61-y59_61 <=1 
C1138: x60+x61-y60_61 <=1 

binary
x0
x1
x2
x3
x4
x5
x6
x7
x8
x9
x10
x11
x12
x13
x14
x15
x16
x17
x18
x19
x20
x21
x22
x23
x24
x25
x26
x27
x28
x29
x30
x31
x32
x33
x34
x35
x36
x37
x38
x39
x40
x41
x42
x43
x44
x45
x46
x47
x48
x49
x50
x51
x52
x53
x54
x55
x56
x57
x58
x59
x60
x61
