problem_generation/data/GISP/train/er_n=62_m=1138_p=0.60_SET2_setparam=100.00_alpha=0.50_720.sol
objective value:                                 1174
x2                                                  1 	(obj:100)
x3                                                  1 	(obj:100)
x7                                                  1 	(obj:100)
x14                                                 1 	(obj:100)
x16                                                 1 	(obj:100)
x17                                                 1 	(obj:100)
x19                                                 1 	(obj:100)
x20                                                 1 	(obj:100)
x32                                                 1 	(obj:100)
x40                                                 1 	(obj:100)
x47                                                 1 	(obj:100)
x53                                                 1 	(obj:100)
y47_53                                              1 	(obj:-1)
y2_32                                               1 	(obj:-1)
y7_16                                               1 	(obj:-1)
y20_53                                              1 	(obj:-1)
y17_47                                              1 	(obj:-1)
y32_40                                              1 	(obj:-1)
y16_32                                              1 	(obj:-1)
y2_7                                                1 	(obj:-1)
y17_19                                              1 	(obj:-1)
y20_47                                              1 	(obj:-1)
y16_40                                              1 	(obj:-1)
y7_53                                               1 	(obj:-1)
y7_47                                               1 	(obj:-1)
y14_40                                              1 	(obj:-1)
y7_19                                               1 	(obj:-1)
y14_17                                              1 	(obj:-1)
y7_14                                               1 	(obj:-1)
y40_47                                              1 	(obj:-1)
y2_20                                               1 	(obj:-1)
y3_7                                                1 	(obj:-1)
y3_16                                               1 	(obj:-1)
y14_16                                              1 	(obj:-1)
y19_53                                              1 	(obj:-1)
y16_20                                              1 	(obj:-1)
y16_19                                              1 	(obj:-1)
y3_53                                               1 	(obj:-1)
